STUDENTS = {Wade,Dean,Christopher,Wendy,Carl,Dana,Anthony,Melinda,Cameron,Robyn,Mark,Jay,David,Carlos,Lisa,Jeremy,Brett,Geoffrey,Karen,Melissa,Louise,Molly,Stephanie,Colleen,Holly,Becky,Kurt,Hazel,John,Louis,Katie,Carmen,Lucy,Debbie,Milton,Paul,Shannon,Peggy,Faye,Glenda,Stuart,Ted,Danny,Juan,Shawn,Stacy,Ann,Albert,Lester,Helen};
T = 50;
LWB = 3;
UPB = 5;
apart = [|Wade,Brett|Wade,Stephanie|Christopher,Karen|Wendy,Robyn|Wendy,Hazel|Carl,Kurt|Carl,Shannon|Carl,Faye|Dana,David|Dana,Melissa|Anthony,Cameron|Anthony,Katie|Anthony,Ted|Anthony,Shawn|Anthony,Ann|Melinda,Faye|Robyn,Mark|Robyn,Jay|Mark,Lucy|David,Milton|David,Ted|Carlos,Brett|Carlos,John|Carlos,Debbie|Carlos,Stuart|Carlos,Danny|Lisa,Milton|Lisa,Ann|Jeremy,Juan|Jeremy,Lester|Brett,Katie|Brett,Stacy|Karen,Louis|Karen,Helen|Louise,Juan|Molly,Katie|Stephanie,Albert|Colleen,Stacy|Holly,Milton|Holly,Helen|John,Ted|John,Stacy|Louis,Carmen|Carmen,Debbie|Debbie,Shawn|Faye,Juan|Danny,Stacy|Juan,Stacy|Shawn,Helen|];
together = [|Wade,Carl|Wade,Shawn|Dean,Carmen|Christopher,Cameron|Christopher,Carmen|Christopher,Shawn|Carl,Dana|Carl,David|Dana,Melinda|Dana,Jay|Dana,Louise|Dana,Carmen|Dana,Danny|Anthony,Mark|Anthony,Stephanie|Melinda,Lucy|Cameron,Holly|Cameron,Katie|Cameron,Debbie|Cameron,Ann|Cameron,Helen|Robyn,Karen|Robyn,Peggy|Robyn,Shawn|Robyn,Lester|Mark,Juan|David,Stephanie|David,Louis|Lisa,Stuart|Brett,Geoffrey|Brett,Melissa|Brett,Shawn|Geoffrey,Becky|Geoffrey,Faye|Karen,Stephanie|Karen,Becky|Karen,Shannon|Melissa,Louise|Melissa,Albert|Louise,Hazel|Louise,Albert|Molly,Becky|Molly,Ted|Stephanie,Colleen|Colleen,Stuart|Colleen,Ann|Holly,Danny|Becky,Glenda|Kurt,Louis|Hazel,Louis|John,Louis|John,Milton|Louis,Paul|Louis,Shawn|Louis,Helen|Katie,Peggy|Katie,Stacy|Katie,Ann|Carmen,Faye|Carmen,Lester|Paul,Shannon|Shannon,Shawn|Stuart,Ted|Stuart,Helen|Juan,Albert|Albert,Lester|];
